40
1 0 3
2 0 2
2 1 1
3 0 3
3 1 5
3 2 2
4 0 3
4 1 3
4 2 2
4 3 4
5 0 1
5 1 1
5 2 4
5 3 4
5 4 1
6 0 1
6 1 3
6 2 2
6 3 1
6 4 5
6 5 2
7 0 5
7 1 2
7 2 3
7 3 2
7 4 5
7 5 4
7 6 3
8 0 2
8 1 4
8 2 3
8 3 5
8 4 3
8 5 2
8 6 1
8 7 2
9 0 2
9 1 2
9 2 3
9 3 2
9 4 5
9 5 5
9 6 3
9 7 3
9 8 1
10 0 2
10 1 5
10 2 2
10 3 2
10 4 2
10 5 3
10 6 5
10 7 4
10 8 4
10 9 2
11 0 3
11 1 2
11 2 2
11 3 4
11 4 3
11 5 3
11 6 4
11 7 3
11 8 4
11 9 5
11 10 1
12 0 4
12 1 3
12 2 2
12 3 5
12 4 3
12 5 2
12 6 3
12 7 2
12 8 3
12 9 1
12 10 2
12 11 4
13 0 2
13 1 4
13 2 3
13 3 4
13 4 2
13 5 3
13 6 4
13 7 5
13 8 5
13 9 5
13 10 4
13 11 2
13 12 2
14 0 5
14 1 4
14 2 2
14 3 3
14 4 4
14 5 2
14 6 3
14 7 1
14 8 2
14 9 5
14 10 2
14 11 2
14 12 3
14 13 1
15 0 4
15 1 5
15 2 5
15 3 5
15 4 1
15 5 2
15 6 3
15 7 1
15 8 4
15 9 1
15 10 3
15 11 5
15 12 3
15 13 3
15 14 5
16 0 5
16 1 4
16 2 5
16 3 3
16 4 3
16 5 4
16 6 2
16 7 2
16 8 1
16 9 3
16 10 1
16 11 4
16 12 1
16 13 2
16 14 4
16 15 1
17 0 3
17 1 1
17 2 4
17 3 5
17 4 5
17 5 5
17 6 3
17 7 4
17 8 2
17 9 1
17 10 2
17 11 1
17 12 4
17 13 5
17 14 4
17 15 1
17 16 2
18 0 1
18 1 2
18 2 5
18 3 2
18 4 5
18 5 4
18 6 1
18 7 2
18 8 2
18 9 1
18 10 4
18 11 1
18 12 2
18 13 1
18 14 4
18 15 5
18 16 4
18 17 5
19 0 1
19 1 3
19 2 3
19 3 4
19 4 3
19 5 2
19 6 5
19 7 1
19 8 1
19 9 1
19 10 2
19 11 1
19 12 2
19 13 1
19 14 2
19 15 1
19 16 1
19 17 4
19 18 1
20 0 2
20 1 2
20 2 1
20 3 1
20 4 3
20 5 1
20 6 5
20 7 5
20 8 1
20 9 4
20 10 1
20 11 3
20 12 2
20 13 1
20 14 5
20 15 5
20 16 3
20 17 1
20 18 3
20 19 1
21 0 1
21 1 2
21 2 3
21 3 5
21 4 1
21 5 4
21 6 1
21 7 4
21 8 5
21 9 2
21 10 3
21 11 2
21 12 4
21 13 3
21 14 1
21 15 4
21 16 3
21 17 3
21 18 5
21 19 2
21 20 2
22 0 2
22 1 2
22 2 2
22 3 1
22 4 3
22 5 4
22 6 2
22 7 3
22 8 5
22 9 5
22 10 1
22 11 4
22 12 1
22 13 2
22 14 4
22 15 5
22 16 2
22 17 5
22 18 1
22 19 1
22 20 4
22 21 4
23 0 1
23 1 2
23 2 4
23 3 5
23 4 4
23 5 4
23 6 2
23 7 1
23 8 2
23 9 1
23 10 3
23 11 2
23 12 5
23 13 5
23 14 3
23 15 3
23 16 2
23 17 3
23 18 5
23 19 1
23 20 3
23 21 1
23 22 2
24 0 1
24 1 4
24 2 5
24 3 4
24 4 4
24 5 2
24 6 5
24 7 3
24 8 3
24 9 3
24 10 4
24 11 3
24 12 4
24 13 1
24 14 1
24 15 5
24 16 1
24 17 3
24 18 5
24 19 4
24 20 5
24 21 2
24 22 1
24 23 2
25 0 5
25 1 4
25 2 1
25 3 1
25 4 2
25 5 3
25 6 5
25 7 2
25 8 2
25 9 4
25 10 1
25 11 3
25 12 2
25 13 2
25 14 2
25 15 4
25 16 3
25 17 4
25 18 5
25 19 2
25 20 3
25 21 1
25 22 2
25 23 2
25 24 5
26 0 4
26 1 3
26 2 5
26 3 4
26 4 5
26 5 2
26 6 4
26 7 1
26 8 5
26 9 5
26 10 5
26 11 2
26 12 2
26 13 1
26 14 4
26 15 1
26 16 1
26 17 5
26 18 2
26 19 4
26 20 2
26 21 1
26 22 3
26 23 2
26 24 1
26 25 5
27 0 2
27 1 5
27 2 5
27 3 4
27 4 2
27 5 4
27 6 4
27 7 4
27 8 1
27 9 2
27 10 2
27 11 1
27 12 5
27 13 5
27 14 4
27 15 3
27 16 2
27 17 5
27 18 1
27 19 1
27 20 5
27 21 1
27 22 2
27 23 4
27 24 1
27 25 1
27 26 1
28 0 2
28 1 1
28 2 5
28 3 3
28 4 1
28 5 2
28 6 3
28 7 5
28 8 1
28 9 3
28 10 5
28 11 4
28 12 5
28 13 5
28 14 5
28 15 3
28 16 3
28 17 5
28 18 3
28 19 3
28 20 4
28 21 2
28 22 1
28 23 3
28 24 1
28 25 4
28 26 5
28 27 4
29 0 5
29 1 2
29 2 2
29 3 5
29 4 3
29 5 1
29 6 1
29 7 3
29 8 4
29 9 2
29 10 2
29 11 5
29 12 3
29 13 3
29 14 4
29 15 1
29 16 5
29 17 2
29 18 3
29 19 2
29 20 5
29 21 2
29 22 5
29 23 4
29 24 4
29 25 2
29 26 4
29 27 1
29 28 2
30 0 1
30 1 5
30 2 2
30 3 3
30 4 4
30 5 5
30 6 1
30 7 3
30 8 4
30 9 3
30 10 1
30 11 4
30 12 3
30 13 2
30 14 2
30 15 5
30 16 2
30 17 1
30 18 2
30 19 4
30 20 2
30 21 3
30 22 1
30 23 2
30 24 1
30 25 5
30 26 2
30 27 1
30 28 2
30 29 2
31 0 1
31 1 3
31 2 3
31 3 5
31 4 2
31 5 2
31 6 4
31 7 4
31 8 4
31 9 5
31 10 4
31 11 2
31 12 2
31 13 4
31 14 5
31 15 4
31 16 5
31 17 3
31 18 5
31 19 3
31 20 3
31 21 1
31 22 1
31 23 1
31 24 1
31 25 5
31 26 5
31 27 2
31 28 1
31 29 3
31 30 5
32 0 3
32 1 5
32 2 1
32 3 1
32 4 3
32 5 4
32 6 5
32 7 1
32 8 2
32 9 5
32 10 3
32 11 4
32 12 1
32 13 1
32 14 1
32 15 1
32 16 1
32 17 5
32 18 5
32 19 5
32 20 3
32 21 2
32 22 4
32 23 5
32 24 1
32 25 2
32 26 1
32 27 3
32 28 1
32 29 5
32 30 5
32 31 4
33 0 2
33 1 2
33 2 3
33 3 1
33 4 2
33 5 1
33 6 1
33 7 2
33 8 1
33 9 1
33 10 5
33 11 3
33 12 4
33 13 4
33 14 4
33 15 3
33 16 5
33 17 1
33 18 4
33 19 4
33 20 4
33 21 1
33 22 2
33 23 1
33 24 5
33 25 2
33 26 1
33 27 5
33 28 2
33 29 4
33 30 4
33 31 2
33 32 4
34 0 1
34 1 3
34 2 2
34 3 1
34 4 1
34 5 5
34 6 5
34 7 3
34 8 4
34 9 4
34 10 4
34 11 5
34 12 3
34 13 2
34 14 2
34 15 1
34 16 3
34 17 2
34 18 2
34 19 5
34 20 4
34 21 5
34 22 1
34 23 4
34 24 5
34 25 5
34 26 1
34 27 5
34 28 5
34 29 1
34 30 3
34 31 2
34 32 3
34 33 5
35 0 4
35 1 5
35 2 3
35 3 2
35 4 4
35 5 2
35 6 3
35 7 1
35 8 2
35 9 2
35 10 4
35 11 1
35 12 3
35 13 2
35 14 2
35 15 4
35 16 4
35 17 4
35 18 3
35 19 1
35 20 4
35 21 5
35 22 3
35 23 1
35 24 5
35 25 2
35 26 2
35 27 5
35 28 2
35 29 2
35 30 4
35 31 2
35 32 1
35 33 4
35 34 5
36 0 2
36 1 3
36 2 5
36 3 1
36 4 4
36 5 5
36 6 4
36 7 5
36 8 4
36 9 4
36 10 4
36 11 4
36 12 1
36 13 2
36 14 5
36 15 1
36 16 1
36 17 2
36 18 5
36 19 2
36 20 5
36 21 4
36 22 1
36 23 2
36 24 3
36 25 1
36 26 1
36 27 3
36 28 3
36 29 5
36 30 5
36 31 5
36 32 2
36 33 3
36 34 5
36 35 4
37 0 4
37 1 4
37 2 4
37 3 3
37 4 1
37 5 2
37 6 3
37 7 1
37 8 5
37 9 2
37 10 3
37 11 5
37 12 2
37 13 4
37 14 3
37 15 3
37 16 1
37 17 3
37 18 5
37 19 3
37 20 5
37 21 1
37 22 3
37 23 4
37 24 2
37 25 5
37 26 4
37 27 2
37 28 2
37 29 1
37 30 1
37 31 2
37 32 5
37 33 3
37 34 5
37 35 5
37 36 2
38 0 4
38 1 5
38 2 5
38 3 5
38 4 4
38 5 3
38 6 3
38 7 5
38 8 3
38 9 1
38 10 5
38 11 3
38 12 4
38 13 2
38 14 5
38 15 2
38 16 3
38 17 3
38 18 3
38 19 2
38 20 5
38 21 5
38 22 2
38 23 1
38 24 5
38 25 4
38 26 5
38 27 5
38 28 1
38 29 3
38 30 4
38 31 5
38 32 2
38 33 3
38 34 5
38 35 5
38 36 4
38 37 3
39 0 1
39 1 3
39 2 4
39 3 3
39 4 5
39 5 4
39 6 2
39 7 2
39 8 3
39 9 1
39 10 5
39 11 4
39 12 4
39 13 4
39 14 2
39 15 4
39 16 4
39 17 3
39 18 3
39 19 3
39 20 1
39 21 5
39 22 1
39 23 1
39 24 4
39 25 2
39 26 1
39 27 2
39 28 1
39 29 1
39 30 5
39 31 1
39 32 2
39 33 1
39 34 4
39 35 2
39 36 2
39 37 1
39 38 4
